qbf_easy_train/easy_763_SAT.qdimacs
p cnf 26 69
a 5 3 21 0
e 1 2 4 6 7 8 9 10 11 12 13 14 15 16 17 18 19 20 22 23 24 25 26 0
1 2 -3 0
-1 -2 -3 0
1 -2 3 0
-1 2 3 0
-4 1 -5 0
4 -1 -5 0
-4 -1 5 0
4 1 5 0
-5 -6 -7 0
5 6 -7 0
-5 6 7 0
5 -6 7 0
-8 3 0
-8 -7 0
-3 7 8 0
10 9 0
10 4 0
-9 -4 -10 0
10 4 -11 0
-10 -4 -11 0
10 -4 11 0
-10 4 11 0
12 5 0
12 11 0
-5 -11 -12 0
13 -2 0
13 -1 0
2 1 -13 0
-14 -13 0
-14 -2 0
13 2 14 0
-4 15 -16 0
4 -15 -16 0
-4 -15 16 0
4 15 16 0
-17 14 0
-17 16 0
-14 -16 17 0
-18 -12 0
-18 -17 0
12 17 18 0
19 9 -20 0
-19 -9 -20 0
19 -9 20 0
-19 9 20 0
-22 20 0
-22 -21 0
-20 21 22 0
18 -22 -23 0
-18 22 -23 0
18 22 23 0
-18 -22 23 0
-4 -10 -24 0
4 10 -24 0
-4 10 24 0
4 -10 24 0
-25 23 0
-25 -24 0
-23 24 25 0
-26 -8 0
-26 25 0
8 -25 26 0
-2 -12 17 -16 14 -13 0
-7 3 26 -21 -15 0
23 22 10 19 -15 16 0
-2 10 -25 -17 -9 0
15 -12 6 -22 0
23 -9 6 -17 21 -14 -24 0
26 0
