sat_easy_train/easy_763_SAT.dimacs
p cnf 117 391
-4 -2 0
-4 -3 0
2 3 4 0
5 -1 0
5 4 0
1 -4 -5 0
6 -7 -8 0
-6 7 -8 0
6 7 8 0
-6 -7 8 0
10 -9 0
10 -1 0
9 1 -10 0
-9 11 -12 0
9 -11 -12 0
-9 -11 12 0
9 11 12 0
-13 -10 0
-13 12 0
10 -12 13 0
-8 13 -14 0
8 -13 -14 0
-8 -13 14 0
8 13 14 0
-3 -4 -15 0
3 4 -15 0
-3 4 15 0
3 -4 15 0
16 -17 0
-16 -17 0
-18 -15 0
-18 -17 0
15 17 18 0
-20 -18 0
-20 19 0
18 -19 20 0
-21 19 -22 0
21 -19 -22 0
-21 -19 22 0
21 19 22 0
-23 20 0
-23 -22 0
-20 22 23 0
24 -14 0
24 23 0
14 -23 -24 0
-5 24 -25 0
5 -24 -25 0
-5 -24 25 0
5 24 25 0
26 -17 -27 0
-26 17 -27 0
26 17 27 0
-26 -17 27 0
20 27 -28 0
-20 -27 -28 0
20 -27 28 0
-20 27 28 0
29 21 0
29 -28 0
-21 28 -29 0
-31 30 0
-31 -16 0
-30 16 31 0
32 -9 0
32 -31 0
9 31 -32 0
-33 4 0
-33 -21 0
-4 21 33 0
22 -33 -34 0
-22 33 -34 0
22 33 34 0
-22 -33 34 0
35 -34 0
35 6 0
34 -6 -35 0
-36 32 0
-36 -35 0
-32 35 36 0
-37 -7 0
-37 -16 0
7 16 37 0
-38 -3 0
-38 37 0
3 -37 38 0
6 -38 -39 0
-6 38 -39 0
6 38 39 0
-6 -38 39 0
-40 15 0
-40 -9 0
-15 9 40 0
-21 40 -41 0
21 -40 -41 0
-21 -40 41 0
21 40 41 0
43 -41 0
43 42 0
41 -42 -43 0
-44 -39 0
-44 43 0
39 -43 44 0
-45 36 0
-45 44 0
-36 -44 45 0
-46 29 0
-46 -45 0
-29 45 46 0
-47 38 0
-47 4 0
-38 -4 47 0
48 6 0
48 40 0
-6 -40 -48 0
49 -47 0
49 -48 0
47 48 -49 0
-50 -10 0
-50 -8 0
10 8 50 0
50 15 -51 0
-50 -15 -51 0
50 -15 51 0
-50 15 51 0
52 -37 0
52 -51 0
37 51 -52 0
53 -49 0
53 52 0
49 -52 -53 0
-42 -7 -54 0
42 7 -54 0
-42 7 54 0
42 -7 54 0
55 2 0
55 15 0
-2 -15 -55 0
-20 55 -56 0
20 -55 -56 0
-20 -55 56 0
20 55 56 0
30 -56 -57 0
-30 56 -57 0
30 56 57 0
-30 -56 57 0
-54 -57 -58 0
54 57 -58 0
-54 57 58 0
54 -57 58 0
15 -41 -59 0
-15 41 -59 0
15 41 59 0
-15 -41 59 0
-60 11 -61 0
60 -11 -61 0
-60 -11 61 0
60 11 61 0
63 3 0
63 -62 0
-3 62 -63 0
64 61 0
64 63 0
-61 -63 -64 0
-65 -59 0
-65 -64 0
59 64 65 0
58 -65 -66 0
-58 65 -66 0
58 65 66 0
-58 -65 66 0
17 34 -67 0
-17 -34 -67 0
17 -34 67 0
-17 34 67 0
-69 67 0
-69 -68 0
-67 68 69 0
-70 66 0
-70 69 0
-66 -69 70 0
53 70 -71 0
-53 -70 -71 0
53 -70 71 0
-53 70 71 0
72 46 0
72 -71 0
-46 71 -72 0
25 72 -73 0
-25 -72 -73 0
25 -72 73 0
-25 72 73 0
16 40 -74 0
-16 -40 -74 0
16 -40 74 0
-16 40 74 0
-75 27 0
-75 -13 0
-27 13 75 0
-76 75 0
-76 40 0
-75 -40 76 0
74 76 -77 0
-74 -76 -77 0
74 -76 77 0
-74 76 77 0
62 30 -78 0
-62 -30 -78 0
62 -30 78 0
-62 30 78 0
-79 9 0
-79 42 0
-9 -42 79 0
80 -78 0
80 79 0
78 -79 -80 0
-81 22 0
-81 -56 0
-22 56 81 0
40 -27 -82 0
-40 27 -82 0
40 27 82 0
-40 -27 82 0
-83 81 0
-83 82 0
-81 -82 83 0
84 55 0
84 40 0
-55 -40 -84 0
-85 83 0
-85 -84 0
-83 84 85 0
-80 85 -86 0
80 -85 -86 0
-80 -85 86 0
80 85 86 0
-87 -50 0
-87 -82 0
50 82 87 0
88 -34 0
88 -9 0
34 9 -88 0
87 88 -89 0
-87 -88 -89 0
87 -88 89 0
-87 88 89 0
90 -86 0
90 89 0
86 -89 -90 0
91 -77 0
91 90 0
77 -90 -91 0
92 -73 0
92 -91 0
73 91 -92 0
93 60 0
93 10 0
-60 -10 -93 0
94 42 0
94 -93 0
-42 93 -94 0
-7 94 -95 0
7 -94 -95 0
-7 -94 95 0
7 94 95 0
96 -16 0
96 30 0
16 -30 -96 0
19 17 -97 0
-19 -17 -97 0
19 -17 97 0
-19 17 97 0
-98 -10 0
-98 -97 0
10 97 98 0
96 98 -99 0
-96 -98 -99 0
96 -98 99 0
-96 98 99 0
100 -95 0
100 99 0
95 -99 -100 0
-101 22 0
-101 -78 0
-22 78 101 0
102 42 0
102 38 0
-42 -38 -102 0
101 -102 -103 0
-101 102 -103 0
101 102 103 0
-101 -102 103 0
104 100 0
104 -103 0
-100 103 -104 0
105 4 0
105 8 0
-4 -8 -105 0
-106 105 0
-106 -17 0
-105 17 106 0
-13 61 -107 0
13 -61 -107 0
-13 -61 107 0
13 61 107 0
-108 -106 0
-108 107 0
106 -107 108 0
-97 37 -109 0
97 -37 -109 0
-97 -37 109 0
97 37 109 0
-110 -108 0
-110 -109 0
108 109 110 0
-104 110 -111 0
104 -110 -111 0
-104 -110 111 0
104 110 111 0
112 -41 0
112 -8 0
41 8 -112 0
113 -41 0
113 -112 0
41 112 -113 0
-114 -51 0
-114 79 0
51 -79 114 0
113 114 -115 0
-113 -114 -115 0
113 -114 115 0
-113 114 115 0
116 -111 0
116 115 0
111 -115 -116 0
-92 -116 -117 0
92 116 -117 0
-92 116 117 0
92 -116 117 0
85 -112 -4 76 39 0
51 5 26 -22 99 0
-54 -37 -66 -61 0
-1 46 -14 -106 -32 95 0
61 -38 52 0
10 27 -70 7 -65 -15 0
13 -46 112 -94 89 -109 0
-12 65 -112 15 0
-87 -62 0
-31 12 72 39 -70 0
-6 -36 -44 104 -7 -11 0
-48 26 0
14 -30 -21 0
116 101 -89 104 0
79 96 -62 91 0
-40 -45 62 -19 0
-106 46 77 -2 0
-23 -93 -112 58 0
46 -99 0
-82 10 4 -96 90 76 0
69 -41 32 95 -24 51 0
101 71 0
-93 67 -38 57 0
97 66 -61 -100 0
-38 49 0
-106 -55 78 -86 0
-59 -60 -111 91 -85 0
-39 86 57 -26 102 0
-78 -74 -89 61 0
-43 -86 31 -106 -73 42 0
-6 94 114 0
-81 -101 8 85 -22 0
-71 -43 26 -114 25 0
-108 -105 98 -96 0
58 84 27 -10 -44 0
34 75 97 40 0
-115 -114 -57 0
-57 110 92 0
-115 112 -44 0
41 -81 94 0
41 24 66 -111 -23 0
54 75 -49 0
-111 69 -89 0
-37 -92 1 0
79 40 -98 -86 0
-104 79 101 14 -1 -112 0
-10 -77 23 40 63 0
53 85 -31 -19 0
-38 -17 28 -32 76 -101 0
10 -25 9 -76 0
-98 -41 0
117 0
